sat
(
  (define-fun C1_VM8 () Int
    0)
  (define-fun C4_VM8 () Int
    0)
  (define-fun VM1Type () Int
    17)
  (define-fun C1_VM3 () Int
    0)
  (define-fun C4_VM10 () Int
    0)
  (define-fun ProcProv9 () Int
    2)
  (define-fun StorageProv9 () Int
    2000)
  (define-fun C3_VM6 () Int
    0)
  (define-fun C4_VM9 () Int
    0)
  (define-fun C4_VM1 () Int
    0)
  (define-fun MemProv10 () Int
    3750)
  (define-fun StorageProv3 () Int
    1000)
  (define-fun C2_VM5 () Int
    0)
  (define-fun MemProv4 () Int
    3750)
  (define-fun ProcProv4 () Int
    2)
  (define-fun C2_VM8 () Int
    0)
  (define-fun C2_VM6 () Int
    0)
  (define-fun C2_VM9 () Int
    0)
  (define-fun C1_VM7 () Int
    0)
  (define-fun VM4Type () Int
    17)
  (define-fun PriceProv9 () Int
    128)
  (define-fun C3_VM2 () Int
    0)
  (define-fun ProcProv10 () Int
    2)
  (define-fun C5_VM7 () Int
    0)
  (define-fun ProcProv8 () Int
    4)
  (define-fun StorageProv10 () Int
    2000)
  (define-fun VM6Type () Int
    17)
  (define-fun StorageProv5 () Int
    2000)
  (define-fun C4_VM3 () Int
    0)
  (define-fun C2_VM2 () Int
    1)
  (define-fun C5_VM6 () Int
    0)
  (define-fun C5_VM1 () Int
    0)
  (define-fun C2_VM4 () Int
    1)
  (define-fun C3_VM5 () Int
    0)
  (define-fun VM10Type () Int
    17)
  (define-fun ProcProv2 () Int
    2)
  (define-fun C5_VM3 () Int
    1)
  (define-fun C4_VM2 () Int
    0)
  (define-fun C1_VM1 () Int
    1)
  (define-fun C5_VM2 () Int
    0)
  (define-fun PriceProv4 () Int
    128)
  (define-fun MemProv5 () Int
    3750)
  (define-fun C5_VM8 () Int
    1)
  (define-fun C1_VM9 () Int
    1)
  (define-fun VM8Type () Int
    15)
  (define-fun MemProv3 () Int
    30500)
  (define-fun C1_VM5 () Int
    1)
  (define-fun C5_VM5 () Int
    0)
  (define-fun C4_VM7 () Int
    0)
  (define-fun MemProv7 () Int
    30500)
  (define-fun StorageProv8 () Int
    1000)
  (define-fun PriceProv8 () Int
    379)
  (define-fun ProcProv1 () Int
    2)
  (define-fun MemProv2 () Int
    3750)
  (define-fun PriceProv6 () Int
    128)
  (define-fun ProcProv3 () Int
    4)
  (define-fun ProcProv5 () Int
    2)
  (define-fun StorageProv4 () Int
    2000)
  (define-fun C3_VM1 () Int
    0)
  (define-fun C2_VM1 () Int
    0)
  (define-fun C1_VM4 () Int
    0)
  (define-fun C3_VM8 () Int
    0)
  (define-fun C5_VM10 () Int
    0)
  (define-fun C2_VM10 () Int
    1)
  (define-fun ProcProv7 () Int
    4)
  (define-fun C5_VM9 () Int
    0)
  (define-fun C3_VM7 () Int
    1)
  (define-fun VM7Type () Int
    15)
  (define-fun C3_VM9 () Int
    0)
  (define-fun VM2Type () Int
    17)
  (define-fun C5_VM4 () Int
    0)
  (define-fun C4_VM6 () Int
    0)
  (define-fun VM9Type () Int
    17)
  (define-fun StorageProv1 () Int
    2000)
  (define-fun MemProv9 () Int
    3750)
  (define-fun PriceProv1 () Int
    128)
  (define-fun C1_VM10 () Int
    0)
  (define-fun PriceProv2 () Int
    128)
  (define-fun C3_VM3 () Int
    0)
  (define-fun C3_VM4 () Int
    0)
  (define-fun C3_VM10 () Int
    0)
  (define-fun MemProv6 () Int
    3750)
  (define-fun VM5Type () Int
    17)
  (define-fun StorageProv7 () Int
    1000)
  (define-fun C4_VM4 () Int
    0)
  (define-fun StorageProv2 () Int
    2000)
  (define-fun PriceProv7 () Int
    379)
  (define-fun C1_VM6 () Int
    1)
  (define-fun PriceProv10 () Int
    128)
  (define-fun PriceProv3 () Int
    379)
  (define-fun MemProv8 () Int
    30500)
  (define-fun C2_VM7 () Int
    0)
  (define-fun MemProv1 () Int
    3750)
  (define-fun C4_VM5 () Int
    0)
  (define-fun StorageProv6 () Int
    2000)
  (define-fun ProcProv6 () Int
    2)
  (define-fun PriceProv5 () Int
    128)
  (define-fun C1_VM2 () Int
    0)
  (define-fun VM3Type () Int
    15)
  (define-fun C2_VM3 () Int
    0)
)
(objectives
 ((+ 0
   PriceProv1
   PriceProv2
   PriceProv3
   PriceProv4
   PriceProv5
   PriceProv6
   PriceProv7
   PriceProv8
   PriceProv9
   PriceProv10) 2033)
)
(:added-eqs                   2960390
 :arith-eq-adapter            17158
 :arith-bound-propagations-lp 263046
 :arith-conflicts             619
 :arith-diseq                 3632949
 :arith-fixed-eqs             28304
 :arith-lower                 5153224
 :arith-make-feasible         275357
 :arith-max-columns           174
 :arith-max-rows              32
 :arith-upper                 2477339
 :binary-propagations         20299870
 :conflicts                   119409
 :decisions                   201331
 :del-clause                  396483
 :final-checks                249
 :max-memory                  86.42
 :memory                      86.42
 :minimized-lits              1698268
 :mk-bool-var                 36208
 :mk-clause                   398198
 :mk-clause-binary            5098
 :num-allocs                  510189670
 :num-checks                  189
 :pb-conflicts                12776
 :pb-predicates               367
 :pb-propagations             159739
 :pb-resolves                 5601
 :propagations                41353756
 :restarts                    503
 :rlimit-count                148667798
 :time                        10.64
 :total-time                  10.65)
